Instance name: /home/cuong/CLionProjects/uMV-FSTSP/50_dis_rand_ins/v83
Write arg val: 1

drone speed: 1 miles/minute
uav non-eligible customer: 3 5 11 
Printing tau:
0 1.54479 54.9764 44.882 48.6261 31.1967 38.8542 66.3919 72.5848 87.6952 84.378 0 
1.54479 0 53.5794 43.4851 47.2292 29.7997 37.4572 67.9367 74.1295 86.2983 82.9811 1.54479 
54.9764 53.5794 0 20.0946 44.7149 55.481 59.9324 107.826 114.018 42.5863 45.6347 54.9764 
44.882 43.4851 20.0946 0 24.6203 35.3864 39.8378 87.7311 93.9239 42.8132 39.496 44.882 
48.6261 47.2292 44.7149 24.6203 0 17.4294 15.2175 63.1108 69.3036 39.0691 35.7519 48.6261 
31.1967 29.7997 55.481 35.3864 17.4294 0 7.65751 52.3446 58.5375 56.4985 53.1813 31.1967 
38.8542 37.4572 59.9324 39.8378 15.2175 7.65751 0 47.8932 54.0861 48.841 45.5238 38.8542 
66.3919 67.9367 107.826 87.7311 63.1108 52.3446 47.8932 0 6.19282 65.2394 62.1909 66.3919 
72.5848 74.1295 114.018 93.9239 69.3036 58.5375 54.0861 6.19282 0 71.4322 68.3837 72.5848 
87.6952 86.2983 42.5863 42.8132 39.0691 56.4985 48.841 65.2394 71.4322 0 3.31721 87.6952 
84.378 82.9811 45.6347 39.496 35.7519 53.1813 45.5238 62.1909 68.3837 3.31721 0 84.378 
0 0 0 0 0 0 0 0 0 0 0 0 
Printing tau_prime:
0 0.552275 18.2544 13.1778 12.9233 9.07221 11.4109 22.3478 23.3563 23.2557 22.4018 0 
0.552275 0 17.7123 12.6691 12.5887 8.91813 11.2649 22.4489 23.4901 22.8945 22.0564 0.552275 
18.2544 17.7123 0 5.9629 11.9758 16.006 16.4569 28.6031 30.2637 14.2404 14.3948 18.2544 
13.1778 12.6691 5.9629 0 6.60351 10.0605 10.6838 23.3378 24.9408 12.8238 12.4719 13.1778 
12.9233 12.5887 11.9758 6.60351 0 5.43229 4.79548 16.7575 18.38 10.3751 9.48329 12.9233 
9.07221 8.91813 16.006 10.0605 5.43229 0 2.34865 14.9275 16.295 15.3667 14.3415 9.07221 
11.4109 11.2649 16.4569 10.6838 4.79548 2.34865 0 13.1633 14.6377 13.7435 12.6527 11.4109 
22.3478 22.4489 28.6031 23.3378 16.7575 14.9275 13.1633 0 1.72682 19.7303 18.6025 22.3478 
23.3563 23.4901 30.2637 24.9408 18.38 16.295 14.6377 1.72682 0 21.4294 20.3075 23.3563 
23.2557 22.8945 14.2404 12.8238 10.3751 15.3667 13.7435 19.7303 21.4294 0 1.19462 23.2557 
22.4018 22.0564 14.3948 12.4719 9.48329 14.3415 12.6527 18.6025 20.3075 1.19462 0 22.4018 
0 0 0 0 0 0 0 0 0 0 0 0 
Version identifier: 22.1.1.0 | 2022-11-28 | 9160aff4d
CPXPARAM_MIP_Tolerances_Integrality              0
Tried aggregator 1 time.
MIP Presolve eliminated 1 rows and 12 columns.
MIP Presolve modified 20 coefficients.
Reduced MIP has 122 rows, 120 columns, and 510 nonzeros.
Reduced MIP has 110 binaries, 0 generals, 0 SOSs, and 0 indicators.
Presolve time = 0.00 sec. (0.27 ticks)
Found incumbent of value 588.040910 after 0.00 sec. (0.75 ticks)
Probing time = 0.00 sec. (0.26 ticks)
Cover probing fixed 0 vars, tightened 10 bounds.
Tried aggregator 1 time.
Detecting symmetries...
MIP Presolve eliminated 10 rows and 0 columns.
MIP Presolve modified 180 coefficients.
Reduced MIP has 112 rows, 120 columns, and 490 nonzeros.
Reduced MIP has 110 binaries, 0 generals, 0 SOSs, and 0 indicators.
Presolve time = 0.00 sec. (0.35 ticks)
Probing time = 0.00 sec. (0.26 ticks)
Clique table members: 67.
MIP emphasis: balance optimality and feasibility.
MIP search method: dynamic search.
Parallel mode: deterministic, using up to 20 threads.
Root relaxation solution time = 0.00 sec. (0.23 ticks)

        Nodes                                         Cuts/
   Node  Left     Objective  IInf  Best Integer    Best Bound    ItCnt     Gap

*     0+    0                          588.0409        0.0000           100.00%
      0     0      130.3355    19      588.0409      130.3355       25   77.84%
*     0+    0                          317.5320      130.3355            58.95%
      0     0      241.2646    18      317.5320      Cuts: 47       47   24.02%
      0     0      241.2646    18      317.5320       Cuts: 4       52   24.02%
*     0+    0                          300.7163      241.2646            19.77%
      0     0      241.2646    18      300.7163    MIRcuts: 3       56   19.77%
*     0+    0                          295.6757      241.2646            18.40%
*     0+    0                          285.8063      241.2646            15.58%
Detecting symmetries...
      0     2      241.2646    18      285.8063      241.2646       56   15.58%
Elapsed time = 0.02 sec. (8.78 ticks, tree = 0.02 MB, solutions = 5)

Clique cuts applied:  3
Implied bound cuts applied:  238
Mixed integer rounding cuts applied:  9
Multi commodity flow cuts applied:  2
Gomory fractional cuts applied:  2

Root node processing (before b&c):
  Real time             =    0.02 sec. (8.72 ticks)
Parallel b&c, 20 threads:
  Real time             =    0.02 sec. (12.80 ticks)
  Sync time (average)   =    0.01 sec.
  Wait time (average)   =    0.00 sec.
                          ------------
Total (root+branch&cut) =    0.04 sec. (21.52 ticks)

TSP solution for this instance: 0 1 5 6 4 3 2 9 10 8 7 11 
12
Warmstart X[1][0] == 1
Warmstart X[2][1] == 1
Warmstart X[3][5] == 1
Warmstart X[4][6] == 1
Warmstart X[5][4] == 1
Warmstart X[6][3] == 1
Warmstart X[7][2] == 1
Warmstart X[8][9] == 1
Warmstart X[9][10] == 1
Warmstart X[10][8] == 1
Warmstart X[11][7] == 1
---------------------------------------------
Calculate max stage gap for sortie.... 
Stage gap calculation consumes too much memory. No constraint was added.
---------------------------------------------
Num constraint added = 4752
Warning:  Output names have been modified due to duplicate names or characters invalid in LP format.
Version identifier: 22.1.1.0 | 2022-11-28 | 9160aff4d
CPXPARAM_TimeLimit                               200
CPXPARAM_MIP_Tolerances_Integrality              0
1 of 1 MIP starts provided solutions.
MIP start 'm1' defined initial solution with objective 285.8063.
Tried aggregator 2 times.
MIP Presolve eliminated 5816 rows and 2100 columns.
MIP Presolve modified 1825 coefficients.
Aggregator did 36 substitutions.
Reduced MIP has 1233 rows, 2640 columns, and 26896 nonzeros.
Reduced MIP has 2619 binaries, 0 generals, 0 SOSs, and 0 indicators.
Presolve time = 0.03 sec. (70.27 ticks)
Probing fixed 259 vars, tightened 0 bounds.
Probing changed sense of 4 constraints.
Probing time = 0.04 sec. (93.13 ticks)
Cover probing fixed 0 vars, tightened 25 bounds.
Tried aggregator 2 times.
MIP Presolve eliminated 122 rows and 259 columns.
MIP Presolve modified 381 coefficients.
Aggregator did 11 substitutions.
Reduced MIP has 1100 rows, 2370 columns, and 21971 nonzeros.
Reduced MIP has 2349 binaries, 0 generals, 0 SOSs, and 0 indicators.
Presolve time = 0.02 sec. (32.90 ticks)
Probing fixed 16 vars, tightened 0 bounds.
Probing time = 0.03 sec. (59.30 ticks)
Tried aggregator 1 time.
Detecting symmetries...
MIP Presolve eliminated 12 rows and 16 columns.
MIP Presolve modified 55 coefficients.
Reduced MIP has 1088 rows, 2354 columns, and 21714 nonzeros.
Reduced MIP has 2333 binaries, 0 generals, 0 SOSs, and 0 indicators.
Presolve time = 0.01 sec. (19.32 ticks)
Probing time = 0.00 sec. (5.43 ticks)
Clique table members: 10939.
MIP emphasis: balance optimality and feasibility.
MIP search method: dynamic search.
Parallel mode: deterministic, using up to 20 threads.
Root relaxation solution time = 0.11 sec. (210.54 ticks)

        Nodes                                         Cuts/
   Node  Left     Objective  IInf  Best Integer    Best Bound    ItCnt     Gap

*     0+    0                          285.8063        1.5448            99.46%
      0     0      129.6551   326      285.8063      129.6551       43   54.64%
      0     0      141.6193   320      285.8063      Cuts: 46     1306   50.45%
      0     0      150.4747   236      285.8063      Cuts: 38     2049   47.35%
      0     0      151.2117   269      285.8063      Cuts: 21     2406   47.09%
      0     0      158.4578   329      285.8063      Cuts: 16     4223   44.56%
      0     0      177.4002   291      285.8063      Cuts: 14     5383   37.93%
Detecting symmetries...
      0     0      197.1641   251      285.8063  ZeroHalf: 10     6438   31.01%
      0     0      201.4770   319      285.8063      Cuts: 10     8082   29.51%
      0     0      201.8397   296      285.8063   ZeroHalf: 7     8215   29.38%
      0     0      206.5456   323      285.8063  ZeroHalf: 10     9352   27.73%
      0     0      207.2494   319      285.8063       Cuts: 8    10973   24.37%
      0     0      215.9267   299      285.8063       Cuts: 4    13688   23.97%
      0     0      217.4118   336      285.8063      Cuts: 19    14684   23.83%
      0     0      218.1345   289      285.8063  ZeroHalf: 11    15944   23.68%
      0     0      218.6090   346      285.8063      Cuts: 17    17543   23.51%
      0     0      219.9433   347      285.8063       Cuts: 9    19002   23.04%
      0     0      220.7831   329      285.8063   ZeroHalf: 3    19711   22.75%
      0     0      221.3827   298      285.8063       Cuts: 5    20514   22.54%
      0     0      221.7461   296      285.8063       Cuts: 6    20937   22.41%
      0     0      221.9596   308      285.8063       Cuts: 5    21810   22.34%
Detecting symmetries...
      0     2      221.9596   308      285.8063      222.3372    21810   22.21%
Elapsed time = 2.52 sec. (4397.32 ticks, tree = 0.02 MB, solutions = 1)
*    12+    3                          277.0700      222.4946            19.70%
     12     9      259.8713    51      277.0700      222.4946    27000   19.70%
*    58+   19                          276.9221      223.1594            19.41%
    422   135      274.2551   108      276.9221      225.9412    87368   18.41%
    696   237      268.5214   133      276.9221      225.9412   152205   18.41%
   1068   391      251.4914   245      276.9221      225.9412   225899   18.41%
   1466   634      269.4005   147      276.9221      225.9412   312841   18.41%
   1662   769      247.1234   199      276.9221      235.3843   364695   15.00%
   1740   765      249.2967   204      276.9221      235.3843   385524   15.00%
   1972   803      272.4474   113      276.9221      238.1156   417603   14.01%
   2578   967      269.7471   186      276.9221      246.3992   496495   11.02%
   4581  1308        cutoff            276.9221      257.7115   780309    6.94%
Elapsed time = 5.80 sec. (7512.99 ticks, tree = 1.41 MB, solutions = 3)

GUB cover cuts applied:  8
Cover cuts applied:  97
Implied bound cuts applied:  4
Flow cuts applied:  1
Zero-half cuts applied:  81
Gomory fractional cuts applied:  2

Root node processing (before b&c):
  Real time             =    2.46 sec. (4272.69 ticks)
Parallel b&c, 20 threads:
  Real time             =    4.09 sec. (3902.98 ticks)
  Sync time (average)   =    1.28 sec.
  Wait time (average)   =    0.00 sec.
                          ------------
Total (root+branch&cut) =    6.54 sec. (8175.67 ticks)
Feasible solution found!
Truck nodes:
Stage 1 at customer 0 with arrival time is: 0
Stage 1 at customer 0 with departure time is: 0
Stage 2 at customer 1 with arrival time is: 1.54479
Stage 2 at customer 1 with departure time is: 1.54479
Stage 3 at customer 5 with arrival time is: 31.3445
Stage 3 at customer 5 with departure time is: 32.3445
Stage 4 at customer 6 with arrival time is: 40.002
Stage 4 at customer 6 with departure time is: 43.5723
Stage 5 at customer 7 with arrival time is: 91.4655
Stage 5 at customer 7 with departure time is: 91.4655
Stage 6 at customer 8 with arrival time is: 97.6583
Stage 6 at customer 8 with departure time is: 97.6583
Stage 7 at customer 10 with arrival time is: 166.042
Stage 7 at customer 10 with departure time is: 166.042
Stage 8 at customer 9 with arrival time is: 169.359
Stage 8 at customer 9 with departure time is: 169.359
Stage 9 at customer 2 with arrival time is: 211.945
Stage 9 at customer 2 with departure time is: 211.945
Stage 10 at customer 3 with arrival time is: 232.04
Stage 10 at customer 3 with departure time is: 232.04
Stage 11 at customer 11 with arrival time is: 276.922
Stage 11 at customer 11 with departure time is: 276.922
Truck arcs:
Arc 1 connecting 0 and 1 with cost 1.54479 
Arc 2 connecting 1 and 5 with cost 29.7997 
Arc 3 connecting 5 and 6 with cost 7.65751 
Arc 4 connecting 6 and 7 with cost 47.8932 
Arc 5 connecting 7 and 8 with cost 6.19282 
Arc 6 connecting 8 and 10 with cost 68.3837 
Arc 7 connecting 10 and 9 with cost 3.31721 
Arc 8 connecting 9 and 2 with cost 42.5863 
Arc 9 connecting 2 and 3 with cost 20.0946 
Arc 10 connecting 3 and 11 with cost 44.882 
Customer 4 served by drone.
Drone fly from 5 at stage 3 to serve 4 and then fly back to 6 at stage 4. 
Truck arcs during this sortie: 5--->6
Truck travel time from stage 3 to 4 is: 7.65751
Total drone travel time: 10.2278
Drone arrival time: 42.5723
Truck arrival time: 40.002
Truck departure time = max(d/a, t/a) plus (sl/sr): 43.5723
Done!
-------------------------Re-calculated objective-----------------------
276.922
------------------------------------------------------------------------
Solve time: 6.544
OBJECTIVE VALUE: 276.922, NUMBER OF SORTIES: 1.
Number of revisit: 0
In write mode
